10  10 
1344106948  1868311537  645   637
425990073   1111853152  588*  588
666128954   1750328066  611   598
442723456   1369177184  577*  577
2033800800  1344077538  641   640
964467313   1735817385  538*  538
1004528509  967002400   623   616
1667495107  818777384   596   595
1806968543  1561913259  595*  595
938376228   344628625   602   596